data/lp_files/pEFS/105_6.lp
\ Model foo
\ LP format - for model browsing. Use MPS format to capture full model detail.
Minimize
  z
Subject To
 allocateEach[1]: x[1,1] + x[2,1] + x[3,1] + x[4,1] + x[5,1] + x[6,1] = 1
 allocateEach[2]: x[1,2] + x[2,2] + x[3,2] + x[4,2] + x[5,2] + x[6,2] = 1
 allocateEach[3]: x[1,3] + x[2,3] + x[3,3] + x[4,3] + x[5,3] + x[6,3] = 1
 allocateEach[4]: x[1,4] + x[2,4] + x[3,4] + x[4,4] + x[5,4] + x[6,4] = 1
 allocateEach[5]: x[1,5] + x[2,5] + x[3,5] + x[4,5] + x[5,5] + x[6,5] = 1
 allocateAllCash: cashProportion[1] + cashProportion[2] + cashProportion[3]
   + cashProportion[4] + cashProportion[5] + cashProportion[6] = 1
 findWorstP[1,2]: z + 0.2062387213199278 cashProportion[1]
   - 0.2062387213199278 cashProportion[2] + 0.0128383604021655 x[1,1]
   + 0.2557360144367105 x[1,2] + 0.0639855632895076 x[1,3]
   + 0.1844289765403455 x[1,4] + 0.2767723640113432 x[1,5]
   - 0.0128383604021655 x[2,1] - 0.2557360144367105 x[2,2]
   - 0.0639855632895076 x[2,3] - 0.1844289765403455 x[2,4]
   - 0.2767723640113432 x[2,5] >= 0
 findWorstP[1,3]: z + 0.2062387213199278 cashProportion[1]
   - 0.2062387213199278 cashProportion[3] + 0.0128383604021655 x[1,1]
   + 0.2557360144367105 x[1,2] + 0.0639855632895076 x[1,3]
   + 0.1844289765403455 x[1,4] + 0.2767723640113432 x[1,5]
   - 0.0128383604021655 x[3,1] - 0.2557360144367105 x[3,2]
   - 0.0639855632895076 x[3,3] - 0.1844289765403455 x[3,4]
   - 0.2767723640113432 x[3,5] >= 0
 findWorstP[1,4]: z + 0.2062387213199278 cashProportion[1]
   - 0.2062387213199278 cashProportion[4] + 0.0128383604021655 x[1,1]
   + 0.2557360144367105 x[1,2] + 0.0639855632895076 x[1,3]
   + 0.1844289765403455 x[1,4] + 0.2767723640113432 x[1,5]
   - 0.0128383604021655 x[4,1] - 0.2557360144367105 x[4,2]
   - 0.0639855632895076 x[4,3] - 0.1844289765403455 x[4,4]
   - 0.2767723640113432 x[4,5] >= 0
 findWorstP[1,5]: z + 0.2062387213199278 cashProportion[1]
   - 0.2062387213199278 cashProportion[5] + 0.0128383604021655 x[1,1]
   + 0.2557360144367105 x[1,2] + 0.0639855632895076 x[1,3]
   + 0.1844289765403455 x[1,4] + 0.2767723640113432 x[1,5]
   - 0.0128383604021655 x[5,1] - 0.2557360144367105 x[5,2]
   - 0.0639855632895076 x[5,3] - 0.1844289765403455 x[5,4]
   - 0.2767723640113432 x[5,5] >= 0
 findWorstP[1,6]: z + 0.2062387213199278 cashProportion[1]
   - 0.2062387213199278 cashProportion[6] + 0.0128383604021655 x[1,1]
   + 0.2557360144367105 x[1,2] + 0.0639855632895076 x[1,3]
   + 0.1844289765403455 x[1,4] + 0.2767723640113432 x[1,5]
   - 0.0128383604021655 x[6,1] - 0.2557360144367105 x[6,2]
   - 0.0639855632895076 x[6,3] - 0.1844289765403455 x[6,4]
   - 0.2767723640113432 x[6,5] >= 0
 findWorstP[2,1]: z - 0.1402377029064264 cashProportion[1]
   + 0.1402377029064264 cashProportion[2] - 0.0815832836658135 x[1,1]
   - 0.2994776145566735 x[1,2] - 0.0235949935140062 x[1,3]
   - 0.2346176769624513 x[1,4] - 0.2204887283946289 x[1,5]
   + 0.0815832836658135 x[2,1] + 0.2994776145566735 x[2,2]
   + 0.0235949935140062 x[2,3] + 0.2346176769624513 x[2,4]
   + 0.2204887283946289 x[2,5] >= 0
 findWorstP[2,3]: z + 0.1402377029064264 cashProportion[2]
   - 0.1402377029064264 cashProportion[3] + 0.0815832836658135 x[2,1]
   + 0.2994776145566735 x[2,2] + 0.0235949935140062 x[2,3]
   + 0.2346176769624513 x[2,4] + 0.2204887283946289 x[2,5]
   - 0.0815832836658135 x[3,1] - 0.2994776145566735 x[3,2]
   - 0.0235949935140062 x[3,3] - 0.2346176769624513 x[3,4]
   - 0.2204887283946289 x[3,5] >= 0
 findWorstP[2,4]: z + 0.1402377029064264 cashProportion[2]
   - 0.1402377029064264 cashProportion[4] + 0.0815832836658135 x[2,1]
   + 0.2994776145566735 x[2,2] + 0.0235949935140062 x[2,3]
   + 0.2346176769624513 x[2,4] + 0.2204887283946289 x[2,5]
   - 0.0815832836658135 x[4,1] - 0.2994776145566735 x[4,2]
   - 0.0235949935140062 x[4,3] - 0.2346176769624513 x[4,4]
   - 0.2204887283946289 x[4,5] >= 0
 findWorstP[2,5]: z + 0.1402377029064264 cashProportion[2]
   - 0.1402377029064264 cashProportion[5] + 0.0815832836658135 x[2,1]
   + 0.2994776145566735 x[2,2] + 0.0235949935140062 x[2,3]
   + 0.2346176769624513 x[2,4] + 0.2204887283946289 x[2,5]
   - 0.0815832836658135 x[5,1] - 0.2994776145566735 x[5,2]
   - 0.0235949935140062 x[5,3] - 0.2346176769624513 x[5,4]
   - 0.2204887283946289 x[5,5] >= 0
 findWorstP[2,6]: z + 0.1402377029064264 cashProportion[2]
   - 0.1402377029064264 cashProportion[6] + 0.0815832836658135 x[2,1]
   + 0.2994776145566735 x[2,2] + 0.0235949935140062 x[2,3]
   + 0.2346176769624513 x[2,4] + 0.2204887283946289 x[2,5]
   - 0.0815832836658135 x[6,1] - 0.2994776145566735 x[6,2]
   - 0.0235949935140062 x[6,3] - 0.2346176769624513 x[6,4]
   - 0.2204887283946289 x[6,5] >= 0
 findWorstP[3,1]: z - 0.1330849081714134 cashProportion[1]
   + 0.1330849081714134 cashProportion[3] - 0.1270960873036998 x[1,1]
   - 0.1924407772158637 x[1,2] - 0.2354937450093159 x[1,3]
   - 0.2727242480702688 x[1,4] - 0.0391602342294384 x[1,5]
   + 0.1270960873036998 x[3,1] + 0.1924407772158637 x[3,2]
   + 0.2354937450093159 x[3,3] + 0.2727242480702688 x[3,4]
   + 0.0391602342294384 x[3,5] >= 0
 findWorstP[3,2]: z - 0.1330849081714134 cashProportion[2]
   + 0.1330849081714134 cashProportion[3] - 0.1270960873036998 x[2,1]
   - 0.1924407772158637 x[2,2] - 0.2354937450093159 x[2,3]
   - 0.2727242480702688 x[2,4] - 0.0391602342294384 x[2,5]
   + 0.1270960873036998 x[3,1] + 0.1924407772158637 x[3,2]
   + 0.2354937450093159 x[3,3] + 0.2727242480702688 x[3,4]
   + 0.0391602342294384 x[3,5] >= 0
 findWorstP[3,4]: z + 0.1330849081714134 cashProportion[3]
   - 0.1330849081714134 cashProportion[4] + 0.1270960873036998 x[3,1]
   + 0.1924407772158637 x[3,2] + 0.2354937450093159 x[3,3]
   + 0.2727242480702688 x[3,4] + 0.0391602342294384 x[3,5]
   - 0.1270960873036998 x[4,1] - 0.1924407772158637 x[4,2]
   - 0.2354937450093159 x[4,3] - 0.2727242480702688 x[4,4]
   - 0.0391602342294384 x[4,5] >= 0
 findWorstP[3,5]: z + 0.1330849081714134 cashProportion[3]
   - 0.1330849081714134 cashProportion[5] + 0.1270960873036998 x[3,1]
   + 0.1924407772158637 x[3,2] + 0.2354937450093159 x[3,3]
   + 0.2727242480702688 x[3,4] + 0.0391602342294384 x[3,5]
   - 0.1270960873036998 x[5,1] - 0.1924407772158637 x[5,2]
   - 0.2354937450093159 x[5,3] - 0.2727242480702688 x[5,4]
   - 0.0391602342294384 x[5,5] >= 0
 findWorstP[3,6]: z + 0.1330849081714134 cashProportion[3]
   - 0.1330849081714134 cashProportion[6] + 0.1270960873036998 x[3,1]
   + 0.1924407772158637 x[3,2] + 0.2354937450093159 x[3,3]
   + 0.2727242480702688 x[3,4] + 0.0391602342294384 x[3,5]
   - 0.1270960873036998 x[6,1] - 0.1924407772158637 x[6,2]
   - 0.2354937450093159 x[6,3] - 0.2727242480702688 x[6,4]
   - 0.0391602342294384 x[6,5] >= 0
 findWorstP[4,1]: z - 0.1784997099379714 cashProportion[1]
   + 0.1784997099379714 cashProportion[4] - 0.0480164219733143 x[1,1]
   - 0.1455665134544156 x[1,2] - 0.1054933285733411 x[1,3]
   - 0.1161140613146504 x[1,4] - 0.4063099647463073 x[1,5]
   + 0.0480164219733143 x[4,1] + 0.1455665134544156 x[4,2]
   + 0.1054933285733411 x[4,3] + 0.1161140613146504 x[4,4]
   + 0.4063099647463073 x[4,5] >= 0
 findWorstP[4,2]: z - 0.1784997099379714 cashProportion[2]
   + 0.1784997099379714 cashProportion[4] - 0.0480164219733143 x[2,1]
   - 0.1455665134544156 x[2,2] - 0.1054933285733411 x[2,3]
   - 0.1161140613146504 x[2,4] - 0.4063099647463073 x[2,5]
   + 0.0480164219733143 x[4,1] + 0.1455665134544156 x[4,2]
   + 0.1054933285733411 x[4,3] + 0.1161140613146504 x[4,4]
   + 0.4063099647463073 x[4,5] >= 0
 findWorstP[4,3]: z - 0.1784997099379714 cashProportion[3]
   + 0.1784997099379714 cashProportion[4] - 0.0480164219733143 x[3,1]
   - 0.1455665134544156 x[3,2] - 0.1054933285733411 x[3,3]
   - 0.1161140613146504 x[3,4] - 0.4063099647463073 x[3,5]
   + 0.0480164219733143 x[4,1] + 0.1455665134544156 x[4,2]
   + 0.1054933285733411 x[4,3] + 0.1161140613146504 x[4,4]
   + 0.4063099647463073 x[4,5] >= 0
 findWorstP[4,5]: z + 0.1784997099379714 cashProportion[4]
   - 0.1784997099379714 cashProportion[5] + 0.0480164219733143 x[4,1]
   + 0.1455665134544156 x[4,2] + 0.1054933285733411 x[4,3]
   + 0.1161140613146504 x[4,4] + 0.4063099647463073 x[4,5]
   - 0.0480164219733143 x[5,1] - 0.1455665134544156 x[5,2]
   - 0.1054933285733411 x[5,3] - 0.1161140613146504 x[5,4]
   - 0.4063099647463073 x[5,5] >= 0
 findWorstP[4,6]: z + 0.1784997099379714 cashProportion[4]
   - 0.1784997099379714 cashProportion[6] + 0.0480164219733143 x[4,1]
   + 0.1455665134544156 x[4,2] + 0.1054933285733411 x[4,3]
   + 0.1161140613146504 x[4,4] + 0.4063099647463073 x[4,5]
   - 0.0480164219733143 x[6,1] - 0.1455665134544156 x[6,2]
   - 0.1054933285733411 x[6,3] - 0.1161140613146504 x[6,4]
   - 0.4063099647463073 x[6,5] >= 0
 findWorstP[5,1]: z - 0.0992432700657487 cashProportion[1]
   + 0.0992432700657487 cashProportion[5] - 0.2004217838977794 x[1,1]
   - 0.1730058305421164 x[1,2] - 0.1960054583798536 x[1,3]
   - 0.1567299342513336 x[1,4] - 0.1745937228631683 x[1,5]
   + 0.2004217838977794 x[5,1] + 0.1730058305421164 x[5,2]
   + 0.1960054583798536 x[5,3] + 0.1567299342513336 x[5,4]
   + 0.1745937228631683 x[5,5] >= 0
 findWorstP[5,2]: z - 0.0992432700657487 cashProportion[2]
   + 0.0992432700657487 cashProportion[5] - 0.2004217838977794 x[2,1]
   - 0.1730058305421164 x[2,2] - 0.1960054583798536 x[2,3]
   - 0.1567299342513336 x[2,4] - 0.1745937228631683 x[2,5]
   + 0.2004217838977794 x[5,1] + 0.1730058305421164 x[5,2]
   + 0.1960054583798536 x[5,3] + 0.1567299342513336 x[5,4]
   + 0.1745937228631683 x[5,5] >= 0
 findWorstP[5,3]: z - 0.0992432700657487 cashProportion[3]
   + 0.0992432700657487 cashProportion[5] - 0.2004217838977794 x[3,1]
   - 0.1730058305421164 x[3,2] - 0.1960054583798536 x[3,3]
   - 0.1567299342513336 x[3,4] - 0.1745937228631683 x[3,5]
   + 0.2004217838977794 x[5,1] + 0.1730058305421164 x[5,2]
   + 0.1960054583798536 x[5,3] + 0.1567299342513336 x[5,4]
   + 0.1745937228631683 x[5,5] >= 0
 findWorstP[5,4]: z - 0.0992432700657487 cashProportion[4]
   + 0.0992432700657487 cashProportion[5] - 0.2004217838977794 x[4,1]
   - 0.1730058305421164 x[4,2] - 0.1960054583798536 x[4,3]
   - 0.1567299342513336 x[4,4] - 0.1745937228631683 x[4,5]
   + 0.2004217838977794 x[5,1] + 0.1730058305421164 x[5,2]
   + 0.1960054583798536 x[5,3] + 0.1567299342513336 x[5,4]
   + 0.1745937228631683 x[5,5] >= 0
 findWorstP[5,6]: z + 0.0992432700657487 cashProportion[5]
   - 0.0992432700657487 cashProportion[6] + 0.2004217838977794 x[5,1]
   + 0.1730058305421164 x[5,2] + 0.1960054583798536 x[5,3]
   + 0.1567299342513336 x[5,4] + 0.1745937228631683 x[5,5]
   - 0.2004217838977794 x[6,1] - 0.1730058305421164 x[6,2]
   - 0.1960054583798536 x[6,3] - 0.1567299342513336 x[6,4]
   - 0.1745937228631683 x[6,5] >= 0
 findWorstP[6,1]: z - 0.1161541365391875 cashProportion[1]
   + 0.1161541365391875 cashProportion[6] - 0.1246333885065482 x[1,1]
   - 0.1769898655515869 x[1,2] - 0.1467897900513982 x[1,3]
   - 0.1778900601097657 x[1,4] - 0.2575427592415135 x[1,5]
   + 0.1246333885065482 x[6,1] + 0.1769898655515869 x[6,2]
   + 0.1467897900513982 x[6,3] + 0.1778900601097657 x[6,4]
   + 0.2575427592415135 x[6,5] >= 0
 findWorstP[6,2]: z - 0.1161541365391875 cashProportion[2]
   + 0.1161541365391875 cashProportion[6] - 0.1246333885065482 x[2,1]
   - 0.1769898655515869 x[2,2] - 0.1467897900513982 x[2,3]
   - 0.1778900601097657 x[2,4] - 0.2575427592415135 x[2,5]
   + 0.1246333885065482 x[6,1] + 0.1769898655515869 x[6,2]
   + 0.1467897900513982 x[6,3] + 0.1778900601097657 x[6,4]
   + 0.2575427592415135 x[6,5] >= 0
 findWorstP[6,3]: z - 0.1161541365391875 cashProportion[3]
   + 0.1161541365391875 cashProportion[6] - 0.1246333885065482 x[3,1]
   - 0.1769898655515869 x[3,2] - 0.1467897900513982 x[3,3]
   - 0.1778900601097657 x[3,4] - 0.2575427592415135 x[3,5]
   + 0.1246333885065482 x[6,1] + 0.1769898655515869 x[6,2]
   + 0.1467897900513982 x[6,3] + 0.1778900601097657 x[6,4]
   + 0.2575427592415135 x[6,5] >= 0
 findWorstP[6,4]: z - 0.1161541365391875 cashProportion[4]
   + 0.1161541365391875 cashProportion[6] - 0.1246333885065482 x[4,1]
   - 0.1769898655515869 x[4,2] - 0.1467897900513982 x[4,3]
   - 0.1778900601097657 x[4,4] - 0.2575427592415135 x[4,5]
   + 0.1246333885065482 x[6,1] + 0.1769898655515869 x[6,2]
   + 0.1467897900513982 x[6,3] + 0.1778900601097657 x[6,4]
   + 0.2575427592415135 x[6,5] >= 0
 findWorstP[6,5]: z - 0.1161541365391875 cashProportion[5]
   + 0.1161541365391875 cashProportion[6] - 0.1246333885065482 x[5,1]
   - 0.1769898655515869 x[5,2] - 0.1467897900513982 x[5,3]
   - 0.1778900601097657 x[5,4] - 0.2575427592415135 x[5,5]
   + 0.1246333885065482 x[6,1] + 0.1769898655515869 x[6,2]
   + 0.1467897900513982 x[6,3] + 0.1778900601097657 x[6,4]
   + 0.2575427592415135 x[6,5] >= 0
Bounds
 z <= 1
 -infinity <= cashProportion[1] <= 1
 -infinity <= cashProportion[2] <= 1
 -infinity <= cashProportion[3] <= 1
 -infinity <= cashProportion[4] <= 1
 -infinity <= cashProportion[5] <= 1
 -infinity <= cashProportion[6] <= 1
Binaries
 x[1,1] x[1,2] x[1,3] x[1,4] x[1,5] x[2,1] x[2,2] x[2,3] x[2,4] x[2,5]
 x[3,1] x[3,2] x[3,3] x[3,4] x[3,5] x[4,1] x[4,2] x[4,3] x[4,4] x[4,5]
 x[5,1] x[5,2] x[5,3] x[5,4] x[5,5] x[6,1] x[6,2] x[6,3] x[6,4] x[6,5]
End
