data/mps_files/q3/105_6.mps
NAME foo
ROWS
 N  OBJ
 E  allocateEach[1]
 E  allocateEach[2]
 E  allocateEach[3]
 E  allocateEach[4]
 E  allocateEach[5]
 E  allocateAllCash
 G  findWorstP[1,2]
 G  findWorstP[1,3]
 G  findWorstP[1,4]
 G  findWorstP[1,5]
 G  findWorstP[1,6]
 G  findWorstP[2,1]
 G  findWorstP[2,3]
 G  findWorstP[2,4]
 G  findWorstP[2,5]
 G  findWorstP[2,6]
 G  findWorstP[3,1]
 G  findWorstP[3,2]
 G  findWorstP[3,4]
 G  findWorstP[3,5]
 G  findWorstP[3,6]
 G  findWorstP[4,1]
 G  findWorstP[4,2]
 G  findWorstP[4,3]
 G  findWorstP[4,5]
 G  findWorstP[4,6]
 G  findWorstP[5,1]
 G  findWorstP[5,2]
 G  findWorstP[5,3]
 G  findWorstP[5,4]
 G  findWorstP[5,6]
 G  findWorstP[6,1]
 G  findWorstP[6,2]
 G  findWorstP[6,3]
 G  findWorstP[6,4]
 G  findWorstP[6,5]
COLUMNS
    z         OBJ       1
    z         findWorstP[1,2]  1
    z         findWorstP[1,3]  1
    z         findWorstP[1,4]  1
    z         findWorstP[1,5]  1
    z         findWorstP[1,6]  1
    z         findWorstP[2,1]  1
    z         findWorstP[2,3]  1
    z         findWorstP[2,4]  1
    z         findWorstP[2,5]  1
    z         findWorstP[2,6]  1
    z         findWorstP[3,1]  1
    z         findWorstP[3,2]  1
    z         findWorstP[3,4]  1
    z         findWorstP[3,5]  1
    z         findWorstP[3,6]  1
    z         findWorstP[4,1]  1
    z         findWorstP[4,2]  1
    z         findWorstP[4,3]  1
    z         findWorstP[4,5]  1
    z         findWorstP[4,6]  1
    z         findWorstP[5,1]  1
    z         findWorstP[5,2]  1
    z         findWorstP[5,3]  1
    z         findWorstP[5,4]  1
    z         findWorstP[5,6]  1
    z         findWorstP[6,1]  1
    z         findWorstP[6,2]  1
    z         findWorstP[6,3]  1
    z         findWorstP[6,4]  1
    z         findWorstP[6,5]  1
    cashProportion[1]  allocateAllCash  1
    cashProportion[1]  findWorstP[1,2]  2.0623872131992785e-01
    cashProportion[1]  findWorstP[1,3]  2.0623872131992785e-01
    cashProportion[1]  findWorstP[1,4]  2.0623872131992785e-01
    cashProportion[1]  findWorstP[1,5]  2.0623872131992785e-01
    cashProportion[1]  findWorstP[1,6]  2.0623872131992785e-01
    cashProportion[1]  findWorstP[2,1]  -1.4023770290642640e-01
    cashProportion[1]  findWorstP[3,1]  -1.3308490817141336e-01
    cashProportion[1]  findWorstP[4,1]  -1.7849970993797137e-01
    cashProportion[1]  findWorstP[5,1]  -9.9243270065748679e-02
    cashProportion[1]  findWorstP[6,1]  -1.1615413653918749e-01
    cashProportion[2]  allocateAllCash  1
    cashProportion[2]  findWorstP[1,2]  -2.0623872131992785e-01
    cashProportion[2]  findWorstP[2,1]  1.4023770290642640e-01
    cashProportion[2]  findWorstP[2,3]  1.4023770290642640e-01
    cashProportion[2]  findWorstP[2,4]  1.4023770290642640e-01
    cashProportion[2]  findWorstP[2,5]  1.4023770290642640e-01
    cashProportion[2]  findWorstP[2,6]  1.4023770290642640e-01
    cashProportion[2]  findWorstP[3,2]  -1.3308490817141336e-01
    cashProportion[2]  findWorstP[4,2]  -1.7849970993797137e-01
    cashProportion[2]  findWorstP[5,2]  -9.9243270065748679e-02
    cashProportion[2]  findWorstP[6,2]  -1.1615413653918749e-01
    cashProportion[3]  allocateAllCash  1
    cashProportion[3]  findWorstP[1,3]  -2.0623872131992785e-01
    cashProportion[3]  findWorstP[2,3]  -1.4023770290642640e-01
    cashProportion[3]  findWorstP[3,1]  1.3308490817141336e-01
    cashProportion[3]  findWorstP[3,2]  1.3308490817141336e-01
    cashProportion[3]  findWorstP[3,4]  1.3308490817141336e-01
    cashProportion[3]  findWorstP[3,5]  1.3308490817141336e-01
    cashProportion[3]  findWorstP[3,6]  1.3308490817141336e-01
    cashProportion[3]  findWorstP[4,3]  -1.7849970993797137e-01
    cashProportion[3]  findWorstP[5,3]  -9.9243270065748679e-02
    cashProportion[3]  findWorstP[6,3]  -1.1615413653918749e-01
    cashProportion[4]  allocateAllCash  1
    cashProportion[4]  findWorstP[1,4]  -2.0623872131992785e-01
    cashProportion[4]  findWorstP[2,4]  -1.4023770290642640e-01
    cashProportion[4]  findWorstP[3,4]  -1.3308490817141336e-01
    cashProportion[4]  findWorstP[4,1]  1.7849970993797137e-01
    cashProportion[4]  findWorstP[4,2]  1.7849970993797137e-01
    cashProportion[4]  findWorstP[4,3]  1.7849970993797137e-01
    cashProportion[4]  findWorstP[4,5]  1.7849970993797137e-01
    cashProportion[4]  findWorstP[4,6]  1.7849970993797137e-01
    cashProportion[4]  findWorstP[5,4]  -9.9243270065748679e-02
    cashProportion[4]  findWorstP[6,4]  -1.1615413653918749e-01
    cashProportion[5]  allocateAllCash  1
    cashProportion[5]  findWorstP[1,5]  -2.0623872131992785e-01
    cashProportion[5]  findWorstP[2,5]  -1.4023770290642640e-01
    cashProportion[5]  findWorstP[3,5]  -1.3308490817141336e-01
    cashProportion[5]  findWorstP[4,5]  -1.7849970993797137e-01
    cashProportion[5]  findWorstP[5,1]  9.9243270065748679e-02
    cashProportion[5]  findWorstP[5,2]  9.9243270065748679e-02
    cashProportion[5]  findWorstP[5,3]  9.9243270065748679e-02
    cashProportion[5]  findWorstP[5,4]  9.9243270065748679e-02
    cashProportion[5]  findWorstP[5,6]  9.9243270065748679e-02
    cashProportion[5]  findWorstP[6,5]  -1.1615413653918749e-01
    cashProportion[6]  allocateAllCash  1
    cashProportion[6]  findWorstP[1,6]  -2.0623872131992785e-01
    cashProportion[6]  findWorstP[2,6]  -1.4023770290642640e-01
    cashProportion[6]  findWorstP[3,6]  -1.3308490817141336e-01
    cashProportion[6]  findWorstP[4,6]  -1.7849970993797137e-01
    cashProportion[6]  findWorstP[5,6]  -9.9243270065748679e-02
    cashProportion[6]  findWorstP[6,1]  1.1615413653918749e-01
    cashProportion[6]  findWorstP[6,2]  1.1615413653918749e-01
    cashProportion[6]  findWorstP[6,3]  1.1615413653918749e-01
    cashProportion[6]  findWorstP[6,4]  1.1615413653918749e-01
    cashProportion[6]  findWorstP[6,5]  1.1615413653918749e-01
    MARKER    'MARKER'                 'INTORG'
    x[1,1]    allocateEach[1]  1
    x[1,1]    findWorstP[1,2]  1.2838360402165508e-02
    x[1,1]    findWorstP[1,3]  1.2838360402165508e-02
    x[1,1]    findWorstP[1,4]  1.2838360402165508e-02
    x[1,1]    findWorstP[1,5]  1.2838360402165508e-02
    x[1,1]    findWorstP[1,6]  1.2838360402165508e-02
    x[1,1]    findWorstP[2,1]  -8.1583283665813550e-02
    x[1,1]    findWorstP[3,1]  -1.2709608730369976e-01
    x[1,1]    findWorstP[4,1]  -4.8016421973314294e-02
    x[1,1]    findWorstP[5,1]  -2.0042178389777943e-01
    x[1,1]    findWorstP[6,1]  -1.2463338850654819e-01
    x[1,2]    allocateEach[2]  1
    x[1,2]    findWorstP[1,2]  2.5573601443671051e-01
    x[1,2]    findWorstP[1,3]  2.5573601443671051e-01
    x[1,2]    findWorstP[1,4]  2.5573601443671051e-01
    x[1,2]    findWorstP[1,5]  2.5573601443671051e-01
    x[1,2]    findWorstP[1,6]  2.5573601443671051e-01
    x[1,2]    findWorstP[2,1]  -2.9947761455667354e-01
    x[1,2]    findWorstP[3,1]  -1.9244077721586370e-01
    x[1,2]    findWorstP[4,1]  -1.4556651345441562e-01
    x[1,2]    findWorstP[5,1]  -1.7300583054211638e-01
    x[1,2]    findWorstP[6,1]  -1.7698986555158694e-01
    x[1,3]    allocateEach[3]  1
    x[1,3]    findWorstP[1,2]  6.3985563289507608e-02
    x[1,3]    findWorstP[1,3]  6.3985563289507608e-02
    x[1,3]    findWorstP[1,4]  6.3985563289507608e-02
    x[1,3]    findWorstP[1,5]  6.3985563289507608e-02
    x[1,3]    findWorstP[1,6]  6.3985563289507608e-02
    x[1,3]    findWorstP[2,1]  -2.3594993514006238e-02
    x[1,3]    findWorstP[3,1]  -2.3549374500931591e-01
    x[1,3]    findWorstP[4,1]  -1.0549332857334107e-01
    x[1,3]    findWorstP[5,1]  -1.9600545837985361e-01
    x[1,3]    findWorstP[6,1]  -1.4678979005139817e-01
    x[1,4]    allocateEach[4]  1
    x[1,4]    findWorstP[1,2]  1.8442897654034549e-01
    x[1,4]    findWorstP[1,3]  1.8442897654034549e-01
    x[1,4]    findWorstP[1,4]  1.8442897654034549e-01
    x[1,4]    findWorstP[1,5]  1.8442897654034549e-01
    x[1,4]    findWorstP[1,6]  1.8442897654034549e-01
    x[1,4]    findWorstP[2,1]  -2.3461767696245134e-01
    x[1,4]    findWorstP[3,1]  -2.7272424807026879e-01
    x[1,4]    findWorstP[4,1]  -1.1611406131465035e-01
    x[1,4]    findWorstP[5,1]  -1.5672993425133358e-01
    x[1,4]    findWorstP[6,1]  -1.7789006010976566e-01
    x[1,5]    allocateEach[5]  1
    x[1,5]    findWorstP[1,2]  2.7677236401134320e-01
    x[1,5]    findWorstP[1,3]  2.7677236401134320e-01
    x[1,5]    findWorstP[1,4]  2.7677236401134320e-01
    x[1,5]    findWorstP[1,5]  2.7677236401134320e-01
    x[1,5]    findWorstP[1,6]  2.7677236401134320e-01
    x[1,5]    findWorstP[2,1]  -2.2048872839462888e-01
    x[1,5]    findWorstP[3,1]  -3.9160234229438373e-02
    x[1,5]    findWorstP[4,1]  -4.0630996474630726e-01
    x[1,5]    findWorstP[5,1]  -1.7459372286316835e-01
    x[1,5]    findWorstP[6,1]  -2.5754275924151349e-01
    x[2,1]    allocateEach[1]  1
    x[2,1]    findWorstP[1,2]  -1.2838360402165508e-02
    x[2,1]    findWorstP[2,1]  8.1583283665813550e-02
    x[2,1]    findWorstP[2,3]  8.1583283665813550e-02
    x[2,1]    findWorstP[2,4]  8.1583283665813550e-02
    x[2,1]    findWorstP[2,5]  8.1583283665813550e-02
    x[2,1]    findWorstP[2,6]  8.1583283665813550e-02
    x[2,1]    findWorstP[3,2]  -1.2709608730369976e-01
    x[2,1]    findWorstP[4,2]  -4.8016421973314294e-02
    x[2,1]    findWorstP[5,2]  -2.0042178389777943e-01
    x[2,1]    findWorstP[6,2]  -1.2463338850654819e-01
    x[2,2]    allocateEach[2]  1
    x[2,2]    findWorstP[1,2]  -2.5573601443671051e-01
    x[2,2]    findWorstP[2,1]  2.9947761455667354e-01
    x[2,2]    findWorstP[2,3]  2.9947761455667354e-01
    x[2,2]    findWorstP[2,4]  2.9947761455667354e-01
    x[2,2]    findWorstP[2,5]  2.9947761455667354e-01
    x[2,2]    findWorstP[2,6]  2.9947761455667354e-01
    x[2,2]    findWorstP[3,2]  -1.9244077721586370e-01
    x[2,2]    findWorstP[4,2]  -1.4556651345441562e-01
    x[2,2]    findWorstP[5,2]  -1.7300583054211638e-01
    x[2,2]    findWorstP[6,2]  -1.7698986555158694e-01
    x[2,3]    allocateEach[3]  1
    x[2,3]    findWorstP[1,2]  -6.3985563289507608e-02
    x[2,3]    findWorstP[2,1]  2.3594993514006238e-02
    x[2,3]    findWorstP[2,3]  2.3594993514006238e-02
    x[2,3]    findWorstP[2,4]  2.3594993514006238e-02
    x[2,3]    findWorstP[2,5]  2.3594993514006238e-02
    x[2,3]    findWorstP[2,6]  2.3594993514006238e-02
    x[2,3]    findWorstP[3,2]  -2.3549374500931591e-01
    x[2,3]    findWorstP[4,2]  -1.0549332857334107e-01
    x[2,3]    findWorstP[5,2]  -1.9600545837985361e-01
    x[2,3]    findWorstP[6,2]  -1.4678979005139817e-01
    x[2,4]    allocateEach[4]  1
    x[2,4]    findWorstP[1,2]  -1.8442897654034549e-01
    x[2,4]    findWorstP[2,1]  2.3461767696245134e-01
    x[2,4]    findWorstP[2,3]  2.3461767696245134e-01
    x[2,4]    findWorstP[2,4]  2.3461767696245134e-01
    x[2,4]    findWorstP[2,5]  2.3461767696245134e-01
    x[2,4]    findWorstP[2,6]  2.3461767696245134e-01
    x[2,4]    findWorstP[3,2]  -2.7272424807026879e-01
    x[2,4]    findWorstP[4,2]  -1.1611406131465035e-01
    x[2,4]    findWorstP[5,2]  -1.5672993425133358e-01
    x[2,4]    findWorstP[6,2]  -1.7789006010976566e-01
    x[2,5]    allocateEach[5]  1
    x[2,5]    findWorstP[1,2]  -2.7677236401134320e-01
    x[2,5]    findWorstP[2,1]  2.2048872839462888e-01
    x[2,5]    findWorstP[2,3]  2.2048872839462888e-01
    x[2,5]    findWorstP[2,4]  2.2048872839462888e-01
    x[2,5]    findWorstP[2,5]  2.2048872839462888e-01
    x[2,5]    findWorstP[2,6]  2.2048872839462888e-01
    x[2,5]    findWorstP[3,2]  -3.9160234229438373e-02
    x[2,5]    findWorstP[4,2]  -4.0630996474630726e-01
    x[2,5]    findWorstP[5,2]  -1.7459372286316835e-01
    x[2,5]    findWorstP[6,2]  -2.5754275924151349e-01
    x[3,1]    allocateEach[1]  1
    x[3,1]    findWorstP[1,3]  -1.2838360402165508e-02
    x[3,1]    findWorstP[2,3]  -8.1583283665813550e-02
    x[3,1]    findWorstP[3,1]  1.2709608730369976e-01
    x[3,1]    findWorstP[3,2]  1.2709608730369976e-01
    x[3,1]    findWorstP[3,4]  1.2709608730369976e-01
    x[3,1]    findWorstP[3,5]  1.2709608730369976e-01
    x[3,1]    findWorstP[3,6]  1.2709608730369976e-01
    x[3,1]    findWorstP[4,3]  -4.8016421973314294e-02
    x[3,1]    findWorstP[5,3]  -2.0042178389777943e-01
    x[3,1]    findWorstP[6,3]  -1.2463338850654819e-01
    x[3,2]    allocateEach[2]  1
    x[3,2]    findWorstP[1,3]  -2.5573601443671051e-01
    x[3,2]    findWorstP[2,3]  -2.9947761455667354e-01
    x[3,2]    findWorstP[3,1]  1.9244077721586370e-01
    x[3,2]    findWorstP[3,2]  1.9244077721586370e-01
    x[3,2]    findWorstP[3,4]  1.9244077721586370e-01
    x[3,2]    findWorstP[3,5]  1.9244077721586370e-01
    x[3,2]    findWorstP[3,6]  1.9244077721586370e-01
    x[3,2]    findWorstP[4,3]  -1.4556651345441562e-01
    x[3,2]    findWorstP[5,3]  -1.7300583054211638e-01
    x[3,2]    findWorstP[6,3]  -1.7698986555158694e-01
    x[3,3]    allocateEach[3]  1
    x[3,3]    findWorstP[1,3]  -6.3985563289507608e-02
    x[3,3]    findWorstP[2,3]  -2.3594993514006238e-02
    x[3,3]    findWorstP[3,1]  2.3549374500931591e-01
    x[3,3]    findWorstP[3,2]  2.3549374500931591e-01
    x[3,3]    findWorstP[3,4]  2.3549374500931591e-01
    x[3,3]    findWorstP[3,5]  2.3549374500931591e-01
    x[3,3]    findWorstP[3,6]  2.3549374500931591e-01
    x[3,3]    findWorstP[4,3]  -1.0549332857334107e-01
    x[3,3]    findWorstP[5,3]  -1.9600545837985361e-01
    x[3,3]    findWorstP[6,3]  -1.4678979005139817e-01
    x[3,4]    allocateEach[4]  1
    x[3,4]    findWorstP[1,3]  -1.8442897654034549e-01
    x[3,4]    findWorstP[2,3]  -2.3461767696245134e-01
    x[3,4]    findWorstP[3,1]  2.7272424807026879e-01
    x[3,4]    findWorstP[3,2]  2.7272424807026879e-01
    x[3,4]    findWorstP[3,4]  2.7272424807026879e-01
    x[3,4]    findWorstP[3,5]  2.7272424807026879e-01
    x[3,4]    findWorstP[3,6]  2.7272424807026879e-01
    x[3,4]    findWorstP[4,3]  -1.1611406131465035e-01
    x[3,4]    findWorstP[5,3]  -1.5672993425133358e-01
    x[3,4]    findWorstP[6,3]  -1.7789006010976566e-01
    x[3,5]    allocateEach[5]  1
    x[3,5]    findWorstP[1,3]  -2.7677236401134320e-01
    x[3,5]    findWorstP[2,3]  -2.2048872839462888e-01
    x[3,5]    findWorstP[3,1]  3.9160234229438373e-02
    x[3,5]    findWorstP[3,2]  3.9160234229438373e-02
    x[3,5]    findWorstP[3,4]  3.9160234229438373e-02
    x[3,5]    findWorstP[3,5]  3.9160234229438373e-02
    x[3,5]    findWorstP[3,6]  3.9160234229438373e-02
    x[3,5]    findWorstP[4,3]  -4.0630996474630726e-01
    x[3,5]    findWorstP[5,3]  -1.7459372286316835e-01
    x[3,5]    findWorstP[6,3]  -2.5754275924151349e-01
    x[4,1]    allocateEach[1]  1
    x[4,1]    findWorstP[1,4]  -1.2838360402165508e-02
    x[4,1]    findWorstP[2,4]  -8.1583283665813550e-02
    x[4,1]    findWorstP[3,4]  -1.2709608730369976e-01
    x[4,1]    findWorstP[4,1]  4.8016421973314294e-02
    x[4,1]    findWorstP[4,2]  4.8016421973314294e-02
    x[4,1]    findWorstP[4,3]  4.8016421973314294e-02
    x[4,1]    findWorstP[4,5]  4.8016421973314294e-02
    x[4,1]    findWorstP[4,6]  4.8016421973314294e-02
    x[4,1]    findWorstP[5,4]  -2.0042178389777943e-01
    x[4,1]    findWorstP[6,4]  -1.2463338850654819e-01
    x[4,2]    allocateEach[2]  1
    x[4,2]    findWorstP[1,4]  -2.5573601443671051e-01
    x[4,2]    findWorstP[2,4]  -2.9947761455667354e-01
    x[4,2]    findWorstP[3,4]  -1.9244077721586370e-01
    x[4,2]    findWorstP[4,1]  1.4556651345441562e-01
    x[4,2]    findWorstP[4,2]  1.4556651345441562e-01
    x[4,2]    findWorstP[4,3]  1.4556651345441562e-01
    x[4,2]    findWorstP[4,5]  1.4556651345441562e-01
    x[4,2]    findWorstP[4,6]  1.4556651345441562e-01
    x[4,2]    findWorstP[5,4]  -1.7300583054211638e-01
    x[4,2]    findWorstP[6,4]  -1.7698986555158694e-01
    x[4,3]    allocateEach[3]  1
    x[4,3]    findWorstP[1,4]  -6.3985563289507608e-02
    x[4,3]    findWorstP[2,4]  -2.3594993514006238e-02
    x[4,3]    findWorstP[3,4]  -2.3549374500931591e-01
    x[4,3]    findWorstP[4,1]  1.0549332857334107e-01
    x[4,3]    findWorstP[4,2]  1.0549332857334107e-01
    x[4,3]    findWorstP[4,3]  1.0549332857334107e-01
    x[4,3]    findWorstP[4,5]  1.0549332857334107e-01
    x[4,3]    findWorstP[4,6]  1.0549332857334107e-01
    x[4,3]    findWorstP[5,4]  -1.9600545837985361e-01
    x[4,3]    findWorstP[6,4]  -1.4678979005139817e-01
    x[4,4]    allocateEach[4]  1
    x[4,4]    findWorstP[1,4]  -1.8442897654034549e-01
    x[4,4]    findWorstP[2,4]  -2.3461767696245134e-01
    x[4,4]    findWorstP[3,4]  -2.7272424807026879e-01
    x[4,4]    findWorstP[4,1]  1.1611406131465035e-01
    x[4,4]    findWorstP[4,2]  1.1611406131465035e-01
    x[4,4]    findWorstP[4,3]  1.1611406131465035e-01
    x[4,4]    findWorstP[4,5]  1.1611406131465035e-01
    x[4,4]    findWorstP[4,6]  1.1611406131465035e-01
    x[4,4]    findWorstP[5,4]  -1.5672993425133358e-01
    x[4,4]    findWorstP[6,4]  -1.7789006010976566e-01
    x[4,5]    allocateEach[5]  1
    x[4,5]    findWorstP[1,4]  -2.7677236401134320e-01
    x[4,5]    findWorstP[2,4]  -2.2048872839462888e-01
    x[4,5]    findWorstP[3,4]  -3.9160234229438373e-02
    x[4,5]    findWorstP[4,1]  4.0630996474630726e-01
    x[4,5]    findWorstP[4,2]  4.0630996474630726e-01
    x[4,5]    findWorstP[4,3]  4.0630996474630726e-01
    x[4,5]    findWorstP[4,5]  4.0630996474630726e-01
    x[4,5]    findWorstP[4,6]  4.0630996474630726e-01
    x[4,5]    findWorstP[5,4]  -1.7459372286316835e-01
    x[4,5]    findWorstP[6,4]  -2.5754275924151349e-01
    x[5,1]    allocateEach[1]  1
    x[5,1]    findWorstP[1,5]  -1.2838360402165508e-02
    x[5,1]    findWorstP[2,5]  -8.1583283665813550e-02
    x[5,1]    findWorstP[3,5]  -1.2709608730369976e-01
    x[5,1]    findWorstP[4,5]  -4.8016421973314294e-02
    x[5,1]    findWorstP[5,1]  2.0042178389777943e-01
    x[5,1]    findWorstP[5,2]  2.0042178389777943e-01
    x[5,1]    findWorstP[5,3]  2.0042178389777943e-01
    x[5,1]    findWorstP[5,4]  2.0042178389777943e-01
    x[5,1]    findWorstP[5,6]  2.0042178389777943e-01
    x[5,1]    findWorstP[6,5]  -1.2463338850654819e-01
    x[5,2]    allocateEach[2]  1
    x[5,2]    findWorstP[1,5]  -2.5573601443671051e-01
    x[5,2]    findWorstP[2,5]  -2.9947761455667354e-01
    x[5,2]    findWorstP[3,5]  -1.9244077721586370e-01
    x[5,2]    findWorstP[4,5]  -1.4556651345441562e-01
    x[5,2]    findWorstP[5,1]  1.7300583054211638e-01
    x[5,2]    findWorstP[5,2]  1.7300583054211638e-01
    x[5,2]    findWorstP[5,3]  1.7300583054211638e-01
    x[5,2]    findWorstP[5,4]  1.7300583054211638e-01
    x[5,2]    findWorstP[5,6]  1.7300583054211638e-01
    x[5,2]    findWorstP[6,5]  -1.7698986555158694e-01
    x[5,3]    allocateEach[3]  1
    x[5,3]    findWorstP[1,5]  -6.3985563289507608e-02
    x[5,3]    findWorstP[2,5]  -2.3594993514006238e-02
    x[5,3]    findWorstP[3,5]  -2.3549374500931591e-01
    x[5,3]    findWorstP[4,5]  -1.0549332857334107e-01
    x[5,3]    findWorstP[5,1]  1.9600545837985361e-01
    x[5,3]    findWorstP[5,2]  1.9600545837985361e-01
    x[5,3]    findWorstP[5,3]  1.9600545837985361e-01
    x[5,3]    findWorstP[5,4]  1.9600545837985361e-01
    x[5,3]    findWorstP[5,6]  1.9600545837985361e-01
    x[5,3]    findWorstP[6,5]  -1.4678979005139817e-01
    x[5,4]    allocateEach[4]  1
    x[5,4]    findWorstP[1,5]  -1.8442897654034549e-01
    x[5,4]    findWorstP[2,5]  -2.3461767696245134e-01
    x[5,4]    findWorstP[3,5]  -2.7272424807026879e-01
    x[5,4]    findWorstP[4,5]  -1.1611406131465035e-01
    x[5,4]    findWorstP[5,1]  1.5672993425133358e-01
    x[5,4]    findWorstP[5,2]  1.5672993425133358e-01
    x[5,4]    findWorstP[5,3]  1.5672993425133358e-01
    x[5,4]    findWorstP[5,4]  1.5672993425133358e-01
    x[5,4]    findWorstP[5,6]  1.5672993425133358e-01
    x[5,4]    findWorstP[6,5]  -1.7789006010976566e-01
    x[5,5]    allocateEach[5]  1
    x[5,5]    findWorstP[1,5]  -2.7677236401134320e-01
    x[5,5]    findWorstP[2,5]  -2.2048872839462888e-01
    x[5,5]    findWorstP[3,5]  -3.9160234229438373e-02
    x[5,5]    findWorstP[4,5]  -4.0630996474630726e-01
    x[5,5]    findWorstP[5,1]  1.7459372286316835e-01
    x[5,5]    findWorstP[5,2]  1.7459372286316835e-01
    x[5,5]    findWorstP[5,3]  1.7459372286316835e-01
    x[5,5]    findWorstP[5,4]  1.7459372286316835e-01
    x[5,5]    findWorstP[5,6]  1.7459372286316835e-01
    x[5,5]    findWorstP[6,5]  -2.5754275924151349e-01
    x[6,1]    allocateEach[1]  1
    x[6,1]    findWorstP[1,6]  -1.2838360402165508e-02
    x[6,1]    findWorstP[2,6]  -8.1583283665813550e-02
    x[6,1]    findWorstP[3,6]  -1.2709608730369976e-01
    x[6,1]    findWorstP[4,6]  -4.8016421973314294e-02
    x[6,1]    findWorstP[5,6]  -2.0042178389777943e-01
    x[6,1]    findWorstP[6,1]  1.2463338850654819e-01
    x[6,1]    findWorstP[6,2]  1.2463338850654819e-01
    x[6,1]    findWorstP[6,3]  1.2463338850654819e-01
    x[6,1]    findWorstP[6,4]  1.2463338850654819e-01
    x[6,1]    findWorstP[6,5]  1.2463338850654819e-01
    x[6,2]    allocateEach[2]  1
    x[6,2]    findWorstP[1,6]  -2.5573601443671051e-01
    x[6,2]    findWorstP[2,6]  -2.9947761455667354e-01
    x[6,2]    findWorstP[3,6]  -1.9244077721586370e-01
    x[6,2]    findWorstP[4,6]  -1.4556651345441562e-01
    x[6,2]    findWorstP[5,6]  -1.7300583054211638e-01
    x[6,2]    findWorstP[6,1]  1.7698986555158694e-01
    x[6,2]    findWorstP[6,2]  1.7698986555158694e-01
    x[6,2]    findWorstP[6,3]  1.7698986555158694e-01
    x[6,2]    findWorstP[6,4]  1.7698986555158694e-01
    x[6,2]    findWorstP[6,5]  1.7698986555158694e-01
    x[6,3]    allocateEach[3]  1
    x[6,3]    findWorstP[1,6]  -6.3985563289507608e-02
    x[6,3]    findWorstP[2,6]  -2.3594993514006238e-02
    x[6,3]    findWorstP[3,6]  -2.3549374500931591e-01
    x[6,3]    findWorstP[4,6]  -1.0549332857334107e-01
    x[6,3]    findWorstP[5,6]  -1.9600545837985361e-01
    x[6,3]    findWorstP[6,1]  1.4678979005139817e-01
    x[6,3]    findWorstP[6,2]  1.4678979005139817e-01
    x[6,3]    findWorstP[6,3]  1.4678979005139817e-01
    x[6,3]    findWorstP[6,4]  1.4678979005139817e-01
    x[6,3]    findWorstP[6,5]  1.4678979005139817e-01
    x[6,4]    allocateEach[4]  1
    x[6,4]    findWorstP[1,6]  -1.8442897654034549e-01
    x[6,4]    findWorstP[2,6]  -2.3461767696245134e-01
    x[6,4]    findWorstP[3,6]  -2.7272424807026879e-01
    x[6,4]    findWorstP[4,6]  -1.1611406131465035e-01
    x[6,4]    findWorstP[5,6]  -1.5672993425133358e-01
    x[6,4]    findWorstP[6,1]  1.7789006010976566e-01
    x[6,4]    findWorstP[6,2]  1.7789006010976566e-01
    x[6,4]    findWorstP[6,3]  1.7789006010976566e-01
    x[6,4]    findWorstP[6,4]  1.7789006010976566e-01
    x[6,4]    findWorstP[6,5]  1.7789006010976566e-01
    x[6,5]    allocateEach[5]  1
    x[6,5]    findWorstP[1,6]  -2.7677236401134320e-01
    x[6,5]    findWorstP[2,6]  -2.2048872839462888e-01
    x[6,5]    findWorstP[3,6]  -3.9160234229438373e-02
    x[6,5]    findWorstP[4,6]  -4.0630996474630726e-01
    x[6,5]    findWorstP[5,6]  -1.7459372286316835e-01
    x[6,5]    findWorstP[6,1]  2.5754275924151349e-01
    x[6,5]    findWorstP[6,2]  2.5754275924151349e-01
    x[6,5]    findWorstP[6,3]  2.5754275924151349e-01
    x[6,5]    findWorstP[6,4]  2.5754275924151349e-01
    x[6,5]    findWorstP[6,5]  2.5754275924151349e-01
    MARKER    'MARKER'                 'INTEND'
RHS
    RHS1      allocateEach[1]  1
    RHS1      allocateEach[2]  1
    RHS1      allocateEach[3]  1
    RHS1      allocateEach[4]  1
    RHS1      allocateEach[5]  1
    RHS1      allocateAllCash  1
BOUNDS
 UP BND1      z         1
 MI BND1      cashProportion[1]
 UP BND1      cashProportion[1]  1
 MI BND1      cashProportion[2]
 UP BND1      cashProportion[2]  1
 MI BND1      cashProportion[3]
 UP BND1      cashProportion[3]  1
 MI BND1      cashProportion[4]
 UP BND1      cashProportion[4]  1
 MI BND1      cashProportion[5]
 UP BND1      cashProportion[5]  1
 MI BND1      cashProportion[6]
 UP BND1      cashProportion[6]  1
 BV BND1      x[1,1]  
 BV BND1      x[1,2]  
 BV BND1      x[1,3]  
 BV BND1      x[1,4]  
 BV BND1      x[1,5]  
 BV BND1      x[2,1]  
 BV BND1      x[2,2]  
 BV BND1      x[2,3]  
 BV BND1      x[2,4]  
 BV BND1      x[2,5]  
 BV BND1      x[3,1]  
 BV BND1      x[3,2]  
 BV BND1      x[3,3]  
 BV BND1      x[3,4]  
 BV BND1      x[3,5]  
 BV BND1      x[4,1]  
 BV BND1      x[4,2]  
 BV BND1      x[4,3]  
 BV BND1      x[4,4]  
 BV BND1      x[4,5]  
 BV BND1      x[5,1]  
 BV BND1      x[5,2]  
 BV BND1      x[5,3]  
 BV BND1      x[5,4]  
 BV BND1      x[5,5]  
 BV BND1      x[6,1]  
 BV BND1      x[6,2]  
 BV BND1      x[6,3]  
 BV BND1      x[6,4]  
 BV BND1      x[6,5]  
ENDATA
